NAME          ClpDefau  FREE
ROWS
 N  OBJROW
 L  ZMUNI1_PCT
 L  ZMUNI2_PCT
 L  ZMUNI3_PCT
 L  ZMUNI4_PCT
 L  ZMUNI5_PCT
 L  ZMUNI6_PCT
 L  ZMUNI7_PCT
 L  ZMUNI8_PCT
 L  ZMUNI9_PCT
COLUMNS
    QMUNI1 OBJROW 1.          
    QMUNI1 ZMUNI1_PCT 30050.087   
    QMUNI1 ZMUNI2_PCT 2231.9794   
    QMUNI1 ZMUNI3_PCT 4725.647    
    QMUNI1 ZMUNI4_PCT 3465.4618   
    QMUNI1 ZMUNI5_PCT 955.9631    
    QMUNI1 ZMUNI6_PCT 1067.7337   
    QMUNI1 ZMUNI7_PCT 3180.6946   
    QMUNI1 ZMUNI8_PCT 2499.0082   
    QMUNI1 ZMUNI9_PCT 1637.6495   
    QMUNI2 OBJROW 1.          
    QMUNI2 ZMUNI1_PCT 1780.51     
    QMUNI2 ZMUNI2_PCT 35580.8258  
    QMUNI2 ZMUNI3_PCT 2611.9232   
    QMUNI2 ZMUNI4_PCT 2719.1163   
    QMUNI2 ZMUNI5_PCT 211.1434    
    QMUNI2 ZMUNI6_PCT 234.6038    
    QMUNI2 ZMUNI7_PCT 1299.2859   
    QMUNI2 ZMUNI8_PCT 1460.2661   
    QMUNI2 ZMUNI9_PCT 1384.3536   
    QMUNI3 OBJROW 1.          
    QMUNI3 ZMUNI1_PCT 4085.1593   
    QMUNI3 ZMUNI2_PCT 2493.4769   
    QMUNI3 ZMUNI3_PCT 31259.5368  
    QMUNI3 ZMUNI4_PCT 4958.3436   
    QMUNI3 ZMUNI5_PCT 61.9888     
    QMUNI3 ZMUNI6_PCT 177.9556    
    QMUNI3 ZMUNI7_PCT 1692.9626   
    QMUNI3 ZMUNI8_PCT 1420.9748   
    QMUNI3 ZMUNI9_PCT 484.0851    
    QMUNI4 OBJROW 1.          
    QMUNI4 ZMUNI1_PCT 3383.6365   
    QMUNI4 ZMUNI2_PCT 3142.9291   
    QMUNI4 ZMUNI3_PCT 5623.6267   
    QMUNI4 ZMUNI4_PCT 109322.2619 
    QMUNI4 ZMUNI5_PCT 137.1383    
    QMUNI4 ZMUNI6_PCT 233.8409    
    QMUNI4 ZMUNI7_PCT 1661.3006   
    QMUNI4 ZMUNI8_PCT 1513.6719   
    QMUNI4 ZMUNI9_PCT 969.5053    
    QMUNI5 OBJROW 1.          
    QMUNI5 ZMUNI1_PCT 484.0851    
    QMUNI5 ZMUNI2_PCT 339.6988    
    QMUNI5 ZMUNI3_PCT 430.2979    
    QMUNI5 ZMUNI4_PCT 345.3255    
    QMUNI5 ZMUNI5_PCT 39443.2067  
    QMUNI5 ZMUNI6_PCT 3324.1272   
    QMUNI5 ZMUNI7_PCT 995.636     
    QMUNI5 ZMUNI8_PCT 754.9286    
    QMUNI5 ZMUNI9_PCT 756.073     
    QMUNI6 OBJROW 1.          
    QMUNI6 ZMUNI1_PCT 686.2641    
    QMUNI6 ZMUNI2_PCT 484.4666    
    QMUNI6 ZMUNI3_PCT 610.3516    
    QMUNI6 ZMUNI4_PCT 505.1613    
    QMUNI6 ZMUNI5_PCT 3683.4716   
    QMUNI6 ZMUNI6_PCT 35145.7595  
    QMUNI6 ZMUNI7_PCT 1382.4463   
    QMUNI6 ZMUNI8_PCT 1029.2053   
    QMUNI6 ZMUNI9_PCT 1027.1072   
    QMUNI7 OBJROW 1.          
    QMUNI7 ZMUNI1_PCT 1594.162    
    QMUNI7 ZMUNI2_PCT 905.6092    
    QMUNI7 ZMUNI3_PCT 1409.3399   
    QMUNI7 ZMUNI4_PCT 1074.6003   
    QMUNI7 ZMUNI5_PCT 716.2094    
    QMUNI7 ZMUNI6_PCT 873.3749    
    QMUNI7 ZMUNI7_PCT 38488.0066  
    QMUNI7 ZMUNI8_PCT 2834.3201   
    QMUNI7 ZMUNI9_PCT 802.4215    
    QMUNI8 OBJROW 1.          
    QMUNI8 ZMUNI1_PCT 1202.0111   
    QMUNI8 ZMUNI2_PCT 1013.7558   
    QMUNI8 ZMUNI3_PCT 1232.9102   
    QMUNI8 ZMUNI4_PCT 975.4181    
    QMUNI8 ZMUNI5_PCT 291.0614    
    QMUNI8 ZMUNI6_PCT 336.647     
    QMUNI8 ZMUNI7_PCT 2875.5188   
    QMUNI8 ZMUNI8_PCT 32693.1     
    QMUNI8 ZMUNI9_PCT 1324.6536   
    QMUNI9 OBJROW 1.          
    QMUNI9 ZMUNI1_PCT 689.3158    
    QMUNI9 ZMUNI2_PCT 983.429     
    QMUNI9 ZMUNI3_PCT 782.9666    
    QMUNI9 ZMUNI4_PCT 680.4467    
    QMUNI9 ZMUNI5_PCT 571.0601    
    QMUNI9 ZMUNI6_PCT 527.0004    
    QMUNI9 ZMUNI7_PCT 1143.2648   
    QMUNI9 ZMUNI8_PCT 1603.6988   
    QMUNI9 ZMUNI9_PCT 32011.9858  
RHS
    RHS ZMUNI1_PCT  -0.37159885
    RHS ZMUNI2_PCT  -0.26828848
    RHS ZMUNI3_PCT  -0.42297023
    RHS ZMUNI4_PCT -0.052641699
    RHS ZMUNI5_PCT  -0.98177221
    RHS ZMUNI6_PCT  -0.69401331
    RHS ZMUNI7_PCT  -1.42218018
    RHS ZMUNI8_PCT  -0.81691627
    RHS ZMUNI9_PCT  -0.56330291
BOUNDS
 LO BOUND QMUNI1 -0.000712728
 UP BOUND QMUNI1      1.1e+10
 LO BOUND QMUNI2 -0.000463444
 UP BOUND QMUNI2      1.1e+10
 LO BOUND QMUNI3 -0.000518077
 UP BOUND QMUNI3      1.1e+10
 LO BOUND QMUNI4 -0.000221163
 UP BOUND QMUNI4      1.1e+10
 LO BOUND QMUNI5 -0.000269641
 UP BOUND QMUNI5      1.1e+10
 LO BOUND QMUNI6 -0.00043803 
 UP BOUND QMUNI6      1.1e+10
 LO BOUND QMUNI7  -4.48474e-5
 UP BOUND QMUNI7      1.1e+10
 LO BOUND QMUNI8 -0.000171905
 UP BOUND QMUNI8      1.1e+10
 LO BOUND QMUNI9 -0.000167087
 UP BOUND QMUNI9      1.1e+10
ENDATA
